%%% static parameters %%%
timespan = 1;
Fact = [2];
Distr1 = [5];
Distr2 = [20];
Clients_N = [1000];
Demand_W = [15];
Lt0 = [4];
Lt1 = [4];
SS_ = [0.85];
DS_D = [20];
K = [200];
MA = [500];
%%% dynamic parameters %%%
lost_ratio_sales_ret_th = 0.007080014654089092;
lost_ratio_sales_ret_w = 97;
lost_ratio_sales_dis_th = 0.0011277689944226056;
lost_ratio_sales_dis_w = 86;
lost_ratio_sales_fac_th = 0.004763995514814651;
lost_ratio_sales_fac_w = 6;
stock_customer_MA_mean_relative_th = 0.47622968563385437;
stock_customer_MA_mean_relative_w = 5;
stock_distributor_MA_mean_relative_th = 0.13619747226161183;
stock_distributor_MA_mean_relative_w = 9;
stock_retailer_MA_mean_relative_th = 0.4273028348830842;
stock_retailer_MA_mean_relative_w = 20;
stock_factory_MA_mean_relative_th = 0.9439737129066329;
stock_factory_MA_mean_relative_w = 45;
